VALUE 4006
2 123
3 624
4 542
5 446
6 503
7 466
8 394
9 299
123 145
139 237
145 356
166 533
237 369
252 503
299 615
356 584
1 369
389 584
394 520
389 398
446 610
398 466
166 503
252 520
123 533
389 542
139 553
369 584
356 610
533 615
553 624

